c generated by ezSAT
c
c mapping of variables to literals:
c    1: CONST_TRUE
c    2: CONST_FALSE
c    3: $not$benchmarks/custom/implies.sv:6$1_Y
c    4: y
c    5: out
c   10: x
c
c mapping of variables to expressions:
c    6: -1
c    9: -2
c   -6: -3
c   -5: -4
c    8: -5
c    7: -6
c    9: -7
c  -10: -8
c   13: -9
c   10: -10
c   -3: -11
c   12: -12
c   11: -13
c   13: -14
c
p cnf 13 26
    1              0
   -2              0
    1              0
    3    4   -6    0
    6   -3         0
    6   -4         0
    5    6    7    0
   -7   -5         0
   -7   -6         0
   -6   -5    8    0
   -8    6         0
   -8    5         0
    7    8   -9    0
    9   -7         0
    9   -8         0
    9              0
    3  -10   11    0
  -11   -3         0
  -11   10         0
   10   -3   12    0
  -12  -10         0
  -12    3         0
   11   12  -13    0
   13  -11         0
   13  -12         0
   13              0
